; benchmark generated from python API
(set-info :status unknown)
(declare-fun x_months () Int)
(declare-fun x_beta () Int)
(declare-fun y_months () Int)
(declare-fun y_beta () Int)
(assert
 (<= (- 1200) x_months))
(assert
 (>= 1199 x_months))
(assert
 (>= x_beta 0))
(assert
 (let ((?x3469 (+ x_months 24003)))
 (let ((?x1474 (- ?x3469 (* (div (- ?x3469 1) 12) 12))))
 (let ((?x2591 (ite (or (= ?x1474 4) (= ?x1474 6) (= ?x1474 9) (= ?x1474 11)) 30 31)))
 (let (($x3568 (and (= (mod (div (- ?x3469 1) 12) 4) 0) (and (distinct (mod (div (- ?x3469 1) 12) 100) 0) true))))
 (let ((?x1223 (ite (or $x3568 (= (mod (div (- ?x3469 1) 12) 400) 0)) 29 28)))
 (< x_beta (ite (= ?x1474 2) ?x1223 ?x2591))))))))
(assert
 (<= (- 1200) y_months))
(assert
 (>= 1199 y_months))
(assert
 (>= y_beta 0))
(assert
 (let ((?x1928 (+ y_months 24003)))
 (let ((?x3428 (- ?x1928 (* (div (- ?x1928 1) 12) 12))))
 (let ((?x2232 (ite (or (= ?x3428 4) (= ?x3428 6) (= ?x3428 9) (= ?x3428 11)) 30 31)))
 (let (($x2086 (and (= (mod (div (- ?x1928 1) 12) 4) 0) (and (distinct (mod (div (- ?x1928 1) 12) 100) 0) true))))
 (let ((?x2175 (ite (or $x2086 (= (mod (div (- ?x1928 1) 12) 400) 0)) 29 28)))
 (< y_beta (ite (= ?x3428 2) ?x2175 ?x2232))))))))
(assert
 (and (= x_months (- (+ (* 2020 12) 2) 24003)) (= 28 x_beta)))
(assert
 (let ((?x1653 (+ x_beta 1)))
 (let ((?x600 (+ (+ x_months 12) 24003)))
 (let ((?x1839 (- ?x600 (* (div (- ?x600 1) 12) 12))))
 (let ((?x3454 (ite (or (= ?x1839 4) (= ?x1839 6) (= ?x1839 9) (= ?x1839 11)) 30 31)))
 (let (($x3026 (and (= (mod (div (- ?x600 1) 12) 4) 0) (and (distinct (mod (div (- ?x600 1) 12) 100) 0) true))))
 (let (($x2837 (or $x3026 (= (mod (div (- ?x600 1) 12) 400) 0))))
 (let ((?x2559 (ite (= ?x1839 2) (ite $x2837 29 28) ?x3454)))
 (let ((?x2657 (ite (> 1 ?x1653) 1 (ite (> ?x1653 ?x2559) ?x2559 ?x1653))))
 (let ((?x3189 (ite (> 1 ?x2657) 1 (ite (> ?x2657 ?x2559) ?x2559 ?x2657))))
 (let ((?x4157 (ite (= 2 ?x1839) (ite $x2837 31 31) (ite (= 1 ?x1839) (ite $x2837 0 0) 0))))
 (let ((?x4199 (ite (= 4 ?x1839) (ite $x2837 91 90) (ite (= 3 ?x1839) (ite $x2837 60 59) ?x4157))))
 (let ((?x449 (ite (= 6 ?x1839) (ite $x2837 152 151) (ite (= 5 ?x1839) (ite $x2837 121 120) ?x4199))))
 (let ((?x4263 (ite (= 8 ?x1839) (ite $x2837 213 212) (ite (= 7 ?x1839) (ite $x2837 182 181) ?x449))))
 (let ((?x1195 (ite (= 10 ?x1839) (ite $x2837 274 273) (ite (= 9 ?x1839) (ite $x2837 244 243) ?x4263))))
 (let ((?x3731 (ite (= 12 ?x1839) (ite $x2837 335 334) (ite (= 11 ?x1839) (ite $x2837 305 304) ?x1195))))
 (let ((?x3777 (+ (* 365 (- (div (- ?x600 1) 12) 1)) (div (- (div (- ?x600 1) 12) 1) 4))))
 (let ((?x3696 (+ (- ?x3777 (div (- (div (- ?x600 1) 12) 1) 100)) (div (- (div (- ?x600 1) 12) 1) 400))))
 (let ((?x2900 (+ (+ (- (+ (+ ?x3696 ?x3731) (- ?x3189 1)) 730179) 0) 730179)))
 (let ((?x2367 (mod ?x2900 146097)))
 (let ((?x1584 (div ?x2367 36524)))
 (let ((?x3505 (ite (<= 4 ?x1584) 3 ?x1584)))
 (let ((?x1239 (- ?x2367 (* ?x3505 36524))))
 (let ((?x3711 (mod ?x1239 1461)))
 (let ((?x2691 (div ?x3711 365)))
 (let ((?x2233 (ite (<= 4 ?x2691) 3 ?x2691)))
 (let ((?x529 (+ (+ (* (div ?x2900 146097) 400) (* ?x3505 100)) (* (div ?x1239 1461) 4))))
 (let ((?x2197 (+ (+ ?x529 ?x2233) 1)))
 (let (($x3874 (or (and (= (mod ?x2197 4) 0) (and (distinct (mod ?x2197 100) 0) true)) (= (mod ?x2197 400) 0))))
 (let ((?x976 (- ?x3711 (* ?x2233 365))))
 (let ((?x783 (ite $x3874 31 31)))
 (let (($x4216 (>= ?x976 ?x783)))
 (let ((?x702 (ite $x4216 (+ (- ?x976 ?x783) 1) (+ (- ?x976 (ite $x3874 0 0)) 1))))
 (let ((?x1025 (ite $x3874 60 59)))
 (let (($x2072 (>= ?x976 ?x1025)))
 (let ((?x1854 (ite $x3874 91 90)))
 (let (($x2523 (>= ?x976 ?x1854)))
 (let ((?x1791 (ite $x2523 (+ (- ?x976 ?x1854) 1) (ite $x2072 (+ (- ?x976 ?x1025) 1) ?x702))))
 (let ((?x3455 (ite $x3874 121 120)))
 (let (($x3114 (>= ?x976 ?x3455)))
 (let ((?x4233 (ite $x3874 152 151)))
 (let (($x1381 (>= ?x976 ?x4233)))
 (let ((?x2609 (ite $x1381 (+ (- ?x976 ?x4233) 1) (ite $x3114 (+ (- ?x976 ?x3455) 1) ?x1791))))
 (let ((?x1925 (ite $x3874 182 181)))
 (let (($x3849 (>= ?x976 ?x1925)))
 (let ((?x1494 (ite $x3874 213 212)))
 (let (($x3692 (>= ?x976 ?x1494)))
 (let ((?x4273 (ite $x3692 (+ (- ?x976 ?x1494) 1) (ite $x3849 (+ (- ?x976 ?x1925) 1) ?x2609))))
 (let ((?x2098 (ite $x3874 244 243)))
 (let (($x2590 (>= ?x976 ?x2098)))
 (let ((?x3784 (ite $x3874 274 273)))
 (let (($x2303 (>= ?x976 ?x3784)))
 (let ((?x1480 (ite $x2303 (+ (- ?x976 ?x3784) 1) (ite $x2590 (+ (- ?x976 ?x2098) 1) ?x4273))))
 (let ((?x1909 (ite $x3874 305 304)))
 (let (($x3864 (>= ?x976 ?x1909)))
 (let ((?x3328 (ite $x3874 335 334)))
 (let (($x3002 (>= ?x976 ?x3328)))
 (let ((?x3086 (ite $x3002 (+ (- ?x976 ?x3328) 1) (ite $x3864 (+ (- ?x976 ?x1909) 1) ?x1480))))
 (let (($x4045 (= 0 0)))
 (let ((?x3715 (ite $x3114 5 (ite $x2523 4 (ite $x2072 3 (ite $x4216 2 1))))))
 (let ((?x3826 (ite $x2590 9 (ite $x3692 8 (ite $x3849 7 (ite $x1381 6 ?x3715))))))
 (let ((?x4200 (+ (* (ite $x4045 (div (- ?x600 1) 12) ?x2197) 12) (ite $x4045 ?x1839 (ite $x3002 12 (ite $x3864 11 (ite $x2303 10 ?x3826)))))))
 (and (= y_months (- ?x4200 24003)) (= y_beta (- (ite $x4045 ?x3189 ?x3086) 1)))))))))))))))))))))))))))))))))))))))))))))))))))))))))))))))))
(assert
 (let (($x2659 (and (= y_months (- (+ (* 2021 12) 2) 24003)) (= 27 y_beta))))
(not $x2659)))
(check-sat)
